 318 200 0 1 2 3 4 5 6 7 8 9 10 11 12 13 14 15 16 17 18 19 20 21 22 23 24 25 26 27 28 29 30 31 32 33 34 35 36 37 38 39 40 41 42 43 44 45 46 47 48 49 50 51 52 53 54 55 56 57 58 59 60 61 62 63 64 65 66 67 68 69 70 71 72 73 74 75 76 77 78 79 80 81 82 83 84 85 86 87 88 89 90 91 92 93 94 95 96 97 98 99 100 101 102 103 104 105 106 107 108 109 110 111 112 113 114 115 116 117 118 119 120 121 122 123 124 125 126 127 128 129 130 131 132 133 134 135 136 137 138 139 140 141 142 143 144 145 146 147 148 149 150 151 152 153 154 155 156 157 158 159 160 161 162 163 164 165 166 167 168 169 170 171 172 173 174 175 176 177 178 179 180 181 182 183 184 185 186 187 188 189 190 191 192 193 194 195 196 197 198 199 
 16
 0 10 13 22 23 24 40 52 62 84 90 114 117 120 129 174
 16
 0 10 13 22 24 37 40 52 62 80 90 114 120 129 155 189
 15
 0 10 13 22 24 40 52 62 80 84 90 114 120 155 164
 15
 0 10 22 23 24 40 52 62 84 88 90 114 117 129 174
 15
 0 10 22 23 24 40 52 65 90 114 117 120 124 129 174
 13
 0 10 22 24 32 40 52 62 90 114 129 146 155
 15
 0 10 22 24 40 52 90 96 114 120 144 174 189 193 194
 13
 0 22 23 24 30 40 52 84 114 129 163 174 190
 14
 0 22 23 24 40 52 62 72 114 129 162 174 189 197
 13
 0 22 24 40 42 52 86 90 114 129 141 174 189
 13
 0 22 24 40 52 84 88 90 114 129 165 174 190
 11
 0 22 24 40 52 86 90 104 114 120 141
 10
 1 16 22 23 24 40 52 65 84 90
 12
 1 22 24 40 52 62 84 90 114 121 129 130
 10
 2 22 24 52 62 72 77 114 129 189
 10
 3 24 36 40 52 84 90 114 130 161
 9
 3 24 40 52 71 90 114 142 161
 15
 4 10 15 22 24 37 40 52 62 72 84 90 114 120 194
 10
 4 22 24 25 40 43 52 62 84 114
 8
 4 22 24 52 58 97 114 147
 15
 5 10 22 24 40 43 52 84 88 90 94 114 129 142 174
 11
 5 22 24 40 52 90 97 114 129 147 174
 9
 5 24 40 88 92 107 114 130 142
 11
 5 24 40 90 92 114 130 142 147 189 194
 15
 6 10 22 24 40 52 57 62 71 72 84 90 114 129 161
 15
 6 10 22 24 40 52 57 62 72 84 90 114 129 130 161
 11
 6 22 24 40 52 90 129 136 139 142 189
 10
 7 20 22 24 40 52 114 124 129 189
 12
 7 22 24 30 40 52 57 88 114 129 142 189
 10
 7 24 40 52 88 113 114 129 142 189
 14
 8 10 13 22 24 28 40 52 64 84 90 114 129 142
 14
 8 10 22 24 28 40 52 62 64 72 84 90 114 129
 14
 8 10 22 24 28 40 52 64 84 90 114 124 129 142
 13
 8 22 24 28 30 40 52 64 88 90 114 129 142
 11
 8 22 24 36 40 66 70 78 84 90 114
 11
 8 22 24 40 64 70 78 90 114 142 147
 14
 9 10 22 24 40 52 62 71 72 84 90 114 121 129
 13
 9 22 24 40 52 84 88 90 114 121 129 130 142
 16
 10 13 22 24 37 40 43 52 62 80 84 90 114 120 129 151
 15
 10 13 22 24 37 40 43 52 62 80 84 90 114 129 167
 16
 10 13 22 24 37 40 52 62 80 84 90 114 120 129 151 194
 14
 10 13 22 24 40 52 53 60 90 92 114 129 142 164
 16
 10 13 22 24 40 52 62 80 84 90 114 120 129 151 164 189
 14
 10 13 22 24 40 52 62 80 84 90 114 120 168 189
 14
 10 13 24 40 52 57 84 92 114 129 142 180 189 194
 11
 10 15 22 24 40 80 84 90 114 120 161
 14
 10 16 22 24 40 43 52 62 72 84 107 114 174 195
 14
 10 16 22 24 40 52 62 72 76 84 90 114 118 194
 15
 10 16 22 24 40 52 62 72 84 90 107 114 118 129 174
 15
 10 16 22 24 40 52 62 72 84 90 107 114 118 189 194
 14
 10 16 22 24 40 52 62 72 84 90 114 129 161 195
 14
 10 16 22 24 40 52 72 76 84 90 114 118 129 174
 13
 10 17 22 24 37 40 52 57 62 72 84 114 129
 15
 10 20 22 24 40 52 62 71 72 84 90 114 126 129 174
 15
 10 20 22 24 40 52 62 72 84 90 114 126 129 130 174
 14
 10 21 22 23 24 40 52 53 62 65 84 90 114 149
 16
 10 21 22 23 24 40 52 53 62 84 90 114 120 129 149 174
 13
 10 21 22 24 28 40 52 76 84 90 101 114 194
 13
 10 21 22 24 37 40 52 53 84 90 101 107 114
 12
 10 21 22 24 40 52 53 84 90 101 111 114
 16
 10 22 23 24 40 52 62 65 84 90 92 114 129 137 144 174
 15
 10 22 23 24 40 52 62 72 77 82 84 90 114 129 174
 13
 10 22 24 28 37 40 57 67 90 107 114 124 142
 11
 10 22 24 28 40 42 52 84 114 123 129
 12
 10 22 24 28 40 42 52 90 114 125 129 144
 11
 10 22 24 28 40 52 57 67 114 124 184
 13
 10 22 24 28 40 52 76 90 125 129 144 164 174
 11
 10 22 24 28 40 52 90 104 114 125 144
 11
 10 22 24 28 40 52 90 129 132 144 174
 8
 10 22 24 28 40 90 114 188
 15
 10 22 24 30 32 40 52 62 84 88 90 114 120 129 143
 14
 10 22 24 30 32 40 52 84 90 114 120 124 129 143
 12
 10 22 24 30 40 52 53 84 90 98 104 114
 11
 10 22 24 31 40 52 63 84 114 121 129
 12
 10 22 24 32 38 40 52 90 114 129 153 174
 14
 10 22 24 32 40 52 62 84 88 90 114 120 129 143
 10
 10 22 24 33 40 90 111 114 120 166
 10
 10 22 24 36 40 41 52 57 114 163
 13
 10 22 24 37 40 52 62 71 72 84 114 174 176
 14
 10 22 24 37 40 52 62 72 84 114 129 130 174 176
 12
 10 22 24 38 40 52 57 90 114 119 129 184
 11
 10 22 24 38 40 57 90 107 114 119 193
 13
 10 22 24 39 40 52 84 88 90 114 120 129 165
 12
 10 22 24 39 40 52 84 90 114 120 147 165
 11
 10 22 24 40 42 52 53 84 114 123 129
 12
 10 22 24 40 42 52 90 114 129 144 148 189
 14
 10 22 24 40 47 48 52 62 84 88 90 114 129 193
 12
 10 22 24 40 47 48 52 84 90 114 124 193
 12
 10 22 24 40 52 53 60 76 90 92 114 124
 14
 10 22 24 40 52 53 60 84 90 114 124 129 142 164
 12
 10 22 24 40 52 53 69 84 90 114 121 129
 14
 10 22 24 40 52 57 62 63 84 90 114 129 174 199
 16
 10 22 24 40 52 57 62 72 83 84 90 114 129 130 174 189
 15
 10 22 24 40 52 57 62 72 84 114 129 130 164 174 195
 14
 10 22 24 40 52 57 62 84 90 114 129 136 174 199
 15
 10 22 24 40 52 62 65 72 84 89 90 114 129 163 174
 15
 10 22 24 40 52 62 65 72 84 89 90 114 129 165 174
 16
 10 22 24 40 52 62 65 84 90 107 109 114 122 129 161 174
 16
 10 22 24 40 52 62 70 71 72 84 90 114 129 164 174 177
 16
 10 22 24 40 52 62 71 72 84 90 96 113 114 129 164 174
 16
 10 22 24 40 52 62 71 72 84 90 96 114 129 142 164 189
 16
 10 22 24 40 52 62 71 72 84 90 105 114 129 142 164 189
 15
 10 22 24 40 52 62 71 72 84 90 105 114 129 164 174
 15
 10 22 24 40 52 62 71 72 84 90 114 121 129 142 169
 16
 10 22 24 40 52 62 71 72 84 90 114 129 142 164 177 189
 16
 10 22 24 40 52 62 72 76 84 90 114 120 127 129 151 174
 14
 10 22 24 40 52 62 72 76 84 90 114 127 129 167
 15
 10 22 24 40 52 62 72 83 84 90 114 129 130 142 174
 14
 10 22 24 40 52 62 72 84 90 100 114 120 129 163
 13
 10 22 24 40 52 62 72 84 90 114 120 138 178
 15
 10 22 24 40 52 62 72 84 90 114 121 129 130 140 142
 15
 10 22 24 40 52 62 72 84 90 114 121 129 130 142 169
 16
 10 22 24 40 52 62 72 84 90 114 129 130 142 164 174 177
 14
 10 22 24 40 52 62 72 84 90 114 129 130 142 196
 13
 10 22 24 40 52 62 72 84 90 114 129 156 163
 14
 10 22 24 40 52 62 72 84 90 114 129 156 165 174
 15
 10 22 24 40 52 62 72 84 105 114 129 130 142 164 189
 12
 10 22 24 40 52 62 73 84 88 114 129 165
 12
 10 22 24 40 52 62 73 84 114 124 129 165
 14
 10 22 24 40 52 62 84 88 90 100 114 120 129 165
 13
 10 22 24 40 52 62 84 90 99 114 120 165 189
 17
 10 22 24 40 52 65 76 84 90 109 114 120 122 129 174 189 194
 17
 10 22 24 40 52 65 84 90 109 114 120 122 129 174 189 193 194
 14
 10 22 24 40 52 72 80 84 90 107 114 120 129 143
 12
 10 22 24 40 52 72 80 90 114 172 174 198
 11
 10 22 24 40 52 74 84 90 114 129 136
 13
 10 22 24 40 52 84 86 90 104 114 120 129 170
 14
 10 22 24 40 52 84 90 94 114 129 142 147 174 191
 13
 10 22 24 40 52 84 90 100 114 120 124 129 165
 11
 10 22 24 40 52 90 99 114 120 163 189
 10
 10 22 24 40 52 90 104 114 144 148
 13
 10 22 24 40 52 90 107 111 114 129 144 148 174
 13
 10 22 24 40 52 90 111 114 129 144 148 174 193
 11
 10 24 28 40 52 60 76 84 90 114 124
 12
 10 24 28 40 57 67 76 90 114 124 142 194
 11
 10 24 29 40 52 57 84 114 124 129 184
 11
 10 24 29 40 57 84 90 107 114 124 164
 9
 10 24 36 40 78 84 102 114 189
 14
 10 24 40 52 57 62 71 84 107 114 129 142 145 194
 13
 10 24 40 52 57 84 92 114 142 147 180 189 194
 13
 10 24 40 52 62 70 71 84 90 106 114 189 194
 10
 10 24 40 52 62 77 84 106 114 194
 8
 11 13 24 52 84 114 164 189
 11
 12 22 24 40 52 70 88 114 129 184 189
 12
 13 20 22 24 40 52 62 80 84 114 154 161
 8
 13 20 22 24 40 52 114 131
 17
 13 22 24 37 40 52 62 65 80 84 90 114 120 128 129 174 189
 9
 13 22 24 40 52 57 84 114 131
 17
 13 22 24 40 52 62 65 80 84 90 114 120 128 129 164 174 189
 8
 13 24 40 52 84 113 114 131
 10
 14 20 22 24 40 80 90 114 134 193
 14
 14 22 24 32 40 52 57 62 72 84 90 114 134 189
 9
 14 22 24 40 76 90 114 127 134
 9
 16 22 24 40 52 87 90 129 174
 11
 17 22 24 36 37 40 78 84 113 114 142
 12
 18 22 24 40 52 84 90 92 111 114 129 130
 10
 18 24 40 71 90 92 107 114 142 194
 9
 18 24 40 71 90 92 114 189 193
 7
 18 24 71 76 92 114 189
 14
 19 22 23 24 40 52 65 86 90 107 113 114 129 142
 12
 19 22 24 40 42 52 86 90 113 114 129 189
 11
 19 22 24 40 52 86 90 104 113 114 129
 9
 20 22 24 36 40 90 114 161 181
 11
 20 22 24 40 43 52 90 129 133 161 189
 9
 20 22 24 40 52 129 133 184 189
 5
 20 22 40 114 186
 10
 20 24 40 52 71 76 114 142 152 189
 7
 20 24 76 90 133 142 164
 13
 22 23 24 40 45 52 65 77 90 114 120 129 142
 14
 22 23 24 40 52 62 70 84 90 114 116 129 144 174
 14
 22 23 24 40 52 62 70 84 90 114 116 129 146 174
 14
 22 23 24 40 52 62 72 77 82 84 90 114 129 174
 13
 22 23 24 40 52 65 86 90 107 113 114 129 170
 10
 22 24 25 40 52 59 92 114 142 189
 7
 22 24 25 40 52 114 127
 12
 22 24 26 40 52 62 84 90 114 121 130 147
 11
 22 24 26 40 52 71 72 84 90 114 121
 11
 22 24 26 40 52 80 84 90 114 189 198
 11
 22 24 27 40 52 90 92 114 121 122 129
 11
 22 24 28 30 40 52 84 90 98 104 114
 12
 22 24 30 40 52 53 60 76 88 90 92 114
 14
 22 24 30 40 52 57 62 84 90 114 129 130 174 199
 12
 22 24 30 40 52 57 88 90 107 159 189 193
 13
 22 24 30 40 52 84 88 90 103 114 121 129 130
 11
 22 24 31 40 52 84 90 114 121 129 130
 12
 22 24 32 38 40 52 57 90 114 129 154 174
 10
 22 24 33 37 40 43 61 90 111 114
 12
 22 24 33 37 40 52 90 92 114 129 158 189
 9
 22 24 33 40 43 49 90 114 164
 10
 22 24 33 40 52 79 90 94 105 114
 10
 22 24 33 40 52 79 90 94 114 177
 11
 22 24 33 40 52 83 90 114 136 142 189
 11
 22 24 33 40 52 90 92 114 129 158 164
 11
 22 24 33 40 52 90 94 111 114 126 164
 9
 22 24 33 40 61 90 111 114 164
 9
 22 24 34 40 79 90 107 142 189
 11
 22 24 36 40 42 52 108 113 114 129 194
 9
 22 24 36 40 57 90 114 161 181
 8
 22 24 36 40 59 110 114 189
 12
 22 24 37 38 40 52 76 90 111 113 114 157
 11
 22 24 37 38 40 52 90 104 113 114 157
 13
 22 24 37 40 51 52 76 86 90 113 114 129 174
 14
 22 24 37 40 51 52 86 90 107 113 114 129 174 193
 12
 22 24 37 40 52 56 70 90 114 129 146 174
 11
 22 24 38 40 52 70 90 104 114 115 189
 11
 22 24 38 40 52 70 90 104 114 125 189
 13
 22 24 38 40 52 70 90 107 111 114 125 129 189
 13
 22 24 38 40 52 70 90 111 114 116 129 174 189
 13
 22 24 38 40 52 70 90 111 114 125 129 174 189
 12
 22 24 38 40 52 79 90 107 111 113 114 157
 11
 22 24 38 40 52 79 90 111 113 114 157
 13
 22 24 38 40 52 90 113 114 119 129 189 193 194
 11
 22 24 38 40 90 107 111 113 114 157 193
 10
 22 24 40 41 52 78 84 113 114 165
 12
 22 24 40 42 51 52 86 90 113 114 129 189
 13
 22 24 40 42 52 84 90 114 129 142 189 198 199
 12
 22 24 40 42 52 86 90 113 114 129 170 189
 12
 22 24 40 42 52 86 90 113 114 129 182 189
 9
 22 24 40 42 52 86 114 129 173
 14
 22 24 40 43 52 57 78 84 90 106 114 130 142 189
 14
 22 24 40 43 52 62 72 77 84 90 114 129 174 177
 14
 22 24 40 43 52 70 90 111 114 115 129 144 174 189
 12
 22 24 40 44 52 62 84 90 114 121 129 130
 10
 22 24 40 44 52 71 90 114 121 129
 11
 22 24 40 48 52 88 90 92 114 150 174
 6
 22 24 40 50 80 189
 10
 22 24 40 51 52 86 90 104 113 114
 12
 22 24 40 52 53 60 62 76 84 88 90 114
 13
 22 24 40 52 53 60 62 84 88 90 114 129 164
 12
 22 24 40 52 54 65 76 90 114 120 127 174
 10
 22 24 40 52 54 80 90 114 189 198
 14
 22 24 40 52 57 62 79 84 90 114 129 130 152 189
 10
 22 24 40 52 57 67 70 114 124 184
 12
 22 24 40 52 57 78 84 92 114 159 184 189
 10
 22 24 40 52 57 78 84 93 114 184
 10
 22 24 40 52 57 86 90 104 114 182
 12
 22 24 40 52 62 65 84 90 114 150 174 198
 15
 22 24 40 52 62 70 71 72 84 90 114 129 164 174 177
 14
 22 24 40 52 62 71 72 84 90 113 114 164 174 195
 12
 22 24 40 52 62 71 84 90 103 114 121 142
 14
 22 24 40 52 62 72 76 84 90 114 127 129 154 174
 14
 22 24 40 52 62 72 76 84 90 114 127 129 167 174
 13
 22 24 40 52 62 72 84 90 114 129 156 163 174
 13
 22 24 40 52 62 84 88 90 94 103 114 121 129
 14
 22 24 40 52 63 65 82 84 90 114 129 139 142 174
 12
 22 24 40 52 63 84 90 96 114 129 139 174
 13
 22 24 40 52 63 84 90 114 118 129 139 142 174
 13
 22 24 40 52 63 84 90 114 126 129 139 142 174
 12
 22 24 40 52 63 85 90 114 121 129 139 142
 12
 22 24 40 52 63 90 105 114 129 139 142 189
 12
 22 24 40 52 63 90 114 121 129 139 140 142
 9
 22 24 40 52 63 114 129 139 196
 14
 22 24 40 52 65 75 84 90 114 120 121 122 129 174
 10
 22 24 40 52 70 90 104 114 115 144
 14
 22 24 40 52 70 90 107 114 115 129 144 189 193 194
 13
 22 24 40 52 70 90 111 114 115 129 144 174 193
 11
 22 24 40 52 71 90 113 114 129 174 199
 12
 22 24 40 52 72 73 84 90 114 129 163 174
 10
 22 24 40 52 76 90 94 107 139 185
 12
 22 24 40 52 78 84 90 92 103 114 121 130
 13
 22 24 40 52 84 90 92 103 114 121 130 142 147
 10
 22 24 40 52 84 90 121 122 129 137
 10
 22 24 40 52 86 90 104 113 114 182
 13
 22 24 40 52 86 90 107 113 114 129 174 182 193
 13
 22 24 40 52 86 90 111 113 114 129 174 182 193
 10
 22 24 40 52 88 90 97 129 174 191
 11
 22 24 40 52 90 94 104 129 139 169 189
 11
 22 24 40 52 90 94 129 139 142 174 176
 12
 22 24 40 52 90 94 129 139 185 189 193 194
 10
 22 24 40 52 90 95 104 113 114 144
 13
 22 24 40 52 90 95 107 111 113 114 129 144 174
 13
 22 24 40 52 90 95 111 113 114 129 144 174 193
 12
 22 24 40 52 90 97 114 129 142 147 174 191
 10
 22 24 40 52 90 114 129 136 139 196
 11
 22 24 40 52 90 121 129 136 139 142 169
 10
 22 24 40 52 90 122 129 142 174 183
 13
 22 24 40 52 92 107 108 111 113 114 129 142 189
 7
 22 24 40 52 110 114 127
 9
 22 24 40 52 112 114 129 139 189
 9
 22 24 40 55 70 90 114 146 193
 11
 22 24 40 57 71 90 113 114 142 152 161
 12
 22 24 40 57 88 90 92 114 159 189 193 194
 11
 22 24 40 57 88 92 106 107 114 130 142
 13
 22 24 40 57 90 92 106 114 130 142 147 189 194
 11
 22 24 40 70 79 90 107 114 115 144 194
 7
 22 24 40 70 90 114 188
 7
 22 24 42 52 129 139 175
 6
 22 40 57 113 114 186
 7
 24 30 40 46 90 142 161
 8
 24 30 40 46 107 142 189 194
 7
 24 30 40 52 88 187 194
 6
 24 30 52 79 135 171
 6
 24 31 40 52 59 198
 8
 24 33 40 79 90 113 114 119
 7
 24 34 40 76 90 142 164
 8
 24 35 40 77 90 129 142 194
 8
 24 36 40 90 113 114 161 181
 8
 24 37 57 76 88 92 114 159
 6
 24 40 50 52 59 142
 12
 24 40 52 57 79 84 88 90 114 130 145 189
 13
 24 40 52 57 84 88 107 114 130 142 145 189 194
 13
 24 40 52 57 84 90 114 130 142 145 147 164 189
 10
 24 40 52 68 70 90 92 114 161 189
 11
 24 40 52 76 92 108 111 113 114 129 189
 9
 24 40 52 78 84 93 113 114 184
 7
 24 40 52 88 92 160 194
 9
 24 40 52 90 114 130 142 147 191
 10
 24 40 57 88 92 107 114 142 147 180
 9
 24 40 68 70 92 107 114 142 164
 6
 24 40 76 91 113 142
 7
 24 40 91 107 113 142 189
 7
 24 40 92 114 147 160 194
 7
 24 40 92 114 147 187 194
 10
 24 52 57 76 84 88 114 130 145 189
 6
 24 52 77 114 142 179
 6
 24 52 81 104 114 135
 8
 24 68 70 76 92 114 189 194
 6
 24 76 127 142 192 194
